certificates/rado_a15_c177_N35.drat
12 -33 0
-33 -34 -35 0
30 33 0
d 30 12 33 0
-13 33 0
-34 -35 0
d -33 -34 -35 0
33 -35 0
13 -35 0
-35 0
-13 0
31 0
17 0
-12 0
9 0
15 0
32 0
-33 0
16 0
10 0
30 0
-5 0
-3 0
-4 0
2 0
8 0
23 0
6 0
21 0
1 0
7 0
22 0
-29 0
-11 0
-28 0
-34 0
26 0
0
